
<<< setup

Tried aggregator 1 time.
LP Presolve eliminated 100 rows and 55 columns.
Reduced LP has 4 rows, 33 columns, and 33 nonzeros.
Presolve time = 0.00 sec. (0.04 ticks)

Iteration log . . .
Iteration:     1   Dual objective     =          1462.370176
main returns 0

<<< main


<<< done

